50 1853
357 750 801 948 354 873 507 732 294 546 423 66 300 201 456 501 117 681 186 825 435 255 300 504 402 54 447 672 522 57 573 825 69 495 837 141 969 375 15 876 852 255 81 939 867 108 300 549 750 9 
357 750 799 947 353 872 505 731 294 546 422 66 298 201 454 499 117 681 186 825 433 254 299 503 400 54 447 671 521 56 572 823 67 494 835 140 968 374 14 875 851 253 81 938 866 106 300 548 748 9 
